1696
138
137
136
135
134
132
19
20
131
130
21
27
26
22
25
23
24
18
133
17
15
273
272
271
16
270
269
268
267
265
264
263
262
261
259
258
257
254
253
208
206
207
212
205
204
203
142
141
140
266
139
148
149
150
179
147
146
143
144
145
199
200
202
201
196
198
197
195
194
193
192
191
190
189
188
166
172
171
106
105
108
110
111
116
62
43
60
61
118
117
115
114
107
173
174
175
161
162
163
164
165
187
186
185
184
183
182
180
181
176
178
151
177
160
159
158
157
119
120
121
122
123
124
152
156
153
155
154
129
128
127
126
125
30
34
33
31
29
28
32
